p cnf 15 48
4 7 11 16 22 0
8 12 17 23 30 0
13 18 24 31 39 0
-4 -8 0
-7 -12 0
-11 -17 0
-16 -23 0
-22 -30 0
-4 -13 0
-7 -18 0
-11 -24 0
-16 -31 0
-22 -39 0
-8 -13 0
-12 -18 0
-17 -24 0
-23 -31 0
-30 -39 0
-4 -12 0
-4 -23 0
-7 -30 0
-11 -23 0
-11 -30 0
-4 -18 0
-4 -31 0
-7 -39 0
-11 -31 0
-11 -39 0
-8 -7 0
-8 -16 0
-12 -22 0
-17 -16 0
-17 -22 0
-8 -18 0
-8 -31 0
-12 -39 0
-17 -31 0
-17 -39 0
-13 -7 0
-13 -16 0
-18 -22 0
-24 -16 0
-24 -22 0
-13 -12 0
-13 -23 0
-18 -30 0
-24 -23 0
-24 -30 0
